scenarios/sols/small/emicp_milp/012.sol
objective value:                     3.11046589925138
x(0,4,0)                                            1 	(obj:0)
x(1,3,0)                                            1 	(obj:0)
x(2,1,0)                                            1 	(obj:0)
x(3,10,0)                                           1 	(obj:0)
x(4,2,0)                                            1 	(obj:0)
x(10,0,0)                                           1 	(obj:0)
xc(0,9)                                             1 	(obj:0)
xc(3,7)                                             1 	(obj:0)
u(1,0)                               1.87862705246275 	(obj:0)
u(2,0)                              0.965399076651143 	(obj:0)
u(3,0)                               2.04438879440243 	(obj:0)
u(4,0)                              0.433064251839923 	(obj:0)
u(10,0)                              3.11046589925138 	(obj:0)
u(11,0)                               0.8970187137277 	(obj:0)
u(12,0)                             0.701515258260901 	(obj:0)
u(13,0)                             0.987604825276401 	(obj:0)
u(14,0)                                0.378864820273 	(obj:0)
u(15,0)                               0.4047840174873 	(obj:0)
u(16,0)                               0.4373705342463 	(obj:0)
u(17,0)                               0.8235126528393 	(obj:0)
u(18,0)                               0.2747463335559 	(obj:0)
u(19,0)                             0.198207331675599 	(obj:0)
f(0,9,0)                                            1 	(obj:0)
f(0,9,1)                                            1 	(obj:0)
f(0,9,2)                                            1 	(obj:0)
f(0,9,3)                                            1 	(obj:0)
f(0,9,4)                                            1 	(obj:0)
f(1,3,1)                                            1 	(obj:0)
f(1,3,2)                                            1 	(obj:0)
f(1,3,4)                                            1 	(obj:0)
f(2,1,2)                                            1 	(obj:0)
f(2,1,4)                                            1 	(obj:0)
f(3,10,1)                                           1 	(obj:0)
f(3,10,2)                                           1 	(obj:0)
f(3,10,3)                                           1 	(obj:0)
f(3,10,4)                                           1 	(obj:0)
f(4,2,4)                                            1 	(obj:0)
f(10,0,1)                                           1 	(obj:0)
f(10,0,2)                                           1 	(obj:0)
f(10,0,3)                                           1 	(obj:0)
f(10,0,4)                                           1 	(obj:0)
z_r(0,)                              3.11046589925138 	(obj:0)
z                                    3.11046589925138 	(obj:1)
