scenarios/sols/small/emicp_milp/012.out
b'The following solver is parallelized by UG version 0.9.1 [GitHash: ]\n'
b'SCIP version 7.0.2 [precision: 8 byte] [memory: block] [mode: optimized] [LP solver: SoPlex 5.0.2] [GitHash: e9d280a398]\n'
b'Copyright (C) 2002-2020 Konrad-Zuse-Zentrum fuer Informationstechnik Berlin (ZIB)\n'
b'External codes: \n'
b'  Readline 7.0         GNU library for command line editing (gnu.org/s/readline)\n'
b'  SoPlex 5.0.2         Linear Programming Solver developed at Zuse Institute Berlin (soplex.zib.de) [GitHash: e24c304e]\n'
b'  CppAD 20180000.0     Algorithmic Differentiation of C++ algorithms developed by B. Bell (www.coin-or.org/CppAD)\n'
b'  ZLIB 1.2.11          General purpose compression library by J. Gailly and M. Adler (zlib.net)\n'
b'  GMP 6.1.2            GNU Multiple Precision Arithmetic Library developed by T. Granlund (gmplib.org)\n'
b'  ZIMPL 3.4.0          Zuse Institute Mathematical Programming Language developed by T. Koch (zimpl.zib.de)\n'
b'Default LC presolving (default).\n'
b'Original Problem   :\n'
b'  Problem name     : 012\n'
b'  Variables        : 4863 (800 binary, 0 integer, 0 implicit integer, 4063 continuous)\n'
b'  Constraints      : 13386\n'
b'  Objective sense  : minimize\n'
b'Presolved Problem  :\n'
b'  Variables        : 536 (99 binary, 0 integer, 0 implicit integer, 437 continuous)\n'
b'  Constraints      : 604\n'
b'Constraints        : Number\n'
b'  varbound         : 357 \n'
b'  knapsack         : 4 \n'
b'  setppc           : 25 \n'
b'  linear           : 217 \n'
b'  logicor          : 1 \n'
b'** Instance transfer method used: 0\n'
b'** ParaScipInstance copy does not increase the number of variables. **\n'
b'LC is working with racing ramp-up and with rebuilding tree after racing.\n'
b'                               Nodes    Active                                            \n'
b'     Time          Nodes        Left   Solvers     Best Integer        Best Node       Gap     Best Node(S)    Gap(S)\n'
b'*       0              0           1         8           3.1105                -         -\n'
b'        0              1           0         0           3.1105           3.1105     0.00%\n'
b'SCIP Status        : problem is solved\n'
b'Total Time         : 0.12\n'
b'  solving          : 0.12\n'
b'  presolving       : 0.04 (included in solving)\n'
b'B&B Tree           :\n'
b'  nodes (total)    : 1\n'
b'Solution           :\n'
b'  Solutions found  : 1\n'
b'  Primal Bound     : +3.11046589925138e+00\n'
b'  Dual Bound       : +3.11046589925138e+00\n'
b'Gap                : 0.00000 %\n'
